;; ===================== PROJECTED CANON (QE) =====================
;; Each clause below is entailed by Proj = ∃W.F over the canonical vocabulary.
;; Units appear first for clarity; OR-clauses (SAT-filtered) follow.
;; ==================================================================

;; Unit Bool constraints (entailed)
(assert patient_has_finding_of_malignant_tumor_of_esophagus_now)
(assert patient_has_finding_of_malignant_esophageal_stricture_now)
(assert patient_has_finding_of_awake_now)
